(set-info :source  loris-7.ddns.comp.nus.edu.sg/~project/hip/) 
;Variables declarations
(declare-fun sm_1466 () Int)
(declare-fun xs () Int)
(declare-fun xl () Int)
(declare-fun x () Int)
(declare-fun v () Int)
(declare-fun n () Int)
(declare-fun tmp_null_primed () Int)
(declare-fun res () Int)
(declare-fun v_int_27_1380_primed () Int)
(declare-fun v_primed () Int)
(declare-fun qs_1470 () Int)
(declare-fun lg_1467 () Int)
(declare-fun flted_15_1468 () Int)
(declare-fun x_primed () Int)
(declare-fun q_1469 () Int)
;Relations declarations
;Axioms assertions
;Antecedent
(assert (= v_int_27_1380_primed sm_1466))
(assert (= (+ flted_15_1468 1) n))
(assert (> q_1469 0))
(assert (<= xs qs_1470))
(assert (= sm_1466 xs))
(assert (= lg_1467 xl))
(assert (= x_primed x))
(assert (= v_primed v))
(assert (< 0 n))
(assert (< tmp_null_primed 1))
(assert (not (> res 0)))
(assert (< v_int_27_1380_primed v_primed))
(assert (= x_primed 1))
(assert (or (and (and (= lg_1467 qs_1470) (= flted_15_1468 1)) (> q_1469 0)) (and (and (<= qs_1470 lg_1467) (<= 2 flted_15_1468)) (> q_1469 0))))
(assert (not (= x_primed q_1469)))
;Negation of Consequence
(assert (not false))
(check-sat)